p cnf 964 2475
51 -2 -697 0
-51 2 0
-51 697 0
52 -51 -698 0
-52 51 0
-52 698 0
53 -5 -699 0
-53 5 0
-53 699 0
54 -53 -6 0
-54 53 0
-54 6 0
55 -700 -701 0
-55 700 0
-55 701 0
56 -8 -702 0
-56 8 0
-56 702 0
57 -56 -703 0
-57 56 0
-57 703 0
58 -704 -55 0
-58 704 0
-58 55 0
59 -705 -706 0
-59 705 0
-59 706 0
60 -59 -707 0
-60 59 0
-60 707 0
61 -708 -58 0
-61 708 0
-61 58 0
62 -14 -709 0
-62 14 0
-62 709 0
63 -62 -6 0
-63 62 0
-63 6 0
64 -710 -61 0
-64 710 0
-64 61 0
65 -15 -6 0
-65 15 0
-65 6 0
66 -65 -711 0
-66 65 0
-66 711 0
67 -712 -64 0
-67 712 0
-67 64 0
68 -713 -697 0
-68 713 0
-68 697 0
69 -68 -714 0
-69 68 0
-69 714 0
70 -715 -67 0
-70 715 0
-70 67 0
71 -17 -11 0
-71 17 0
-71 11 0
72 -71 -18 0
-72 71 0
-72 18 0
73 -716 -70 0
-73 716 0
-73 70 0
74 -19 -717 0
-74 19 0
-74 717 0
75 -74 -718 0
-75 74 0
-75 718 0
76 -719 -73 0
-76 719 0
-76 73 0
77 -22 -21 0
-77 22 0
-77 21 0
78 -77 -720 0
-78 77 0
-78 720 0
79 -721 -76 0
-79 721 0
-79 76 0
80 -24 -21 0
-80 24 0
-80 21 0
81 -80 -25 0
-81 80 0
-81 25 0
82 -722 -79 0
-82 722 0
-82 79 0
83 -18 -723 0
-83 18 0
-83 723 0
84 -83 -724 0
-84 83 0
-84 724 0
85 -725 -82 0
-85 725 0
-85 82 0
86 -27 -10 0
-86 27 0
-86 10 0
87 -86 -28 0
-87 86 0
-87 28 0
88 -726 -85 0
-88 726 0
-88 85 0
89 -15 -727 0
-89 15 0
-89 727 0
90 -89 -25 0
-90 89 0
-90 25 0
91 -728 -88 0
-91 728 0
-91 88 0
92 -29 -17 0
-92 29 0
-92 17 0
93 -92 -30 0
-93 92 0
-93 30 0
94 -729 -91 0
-94 729 0
-94 91 0
95 -730 -15 0
-95 730 0
-95 15 0
96 -95 -731 0
-96 95 0
-96 731 0
97 -732 -94 0
-97 732 0
-97 94 0
98 -730 -23 0
-98 730 0
-98 23 0
99 -98 -33 0
-99 98 0
-99 33 0
100 -733 -97 0
-100 733 0
-100 97 0
101 -34 -9 0
-101 34 0
-101 9 0
102 -101 -35 0
-102 101 0
-102 35 0
103 -734 -100 0
-103 734 0
-103 100 0
104 -735 -7 0
-104 735 0
-104 7 0
105 -104 -736 0
-105 104 0
-105 736 0
106 -737 -103 0
-106 737 0
-106 103 0
107 -36 -16 0
-107 36 0
-107 16 0
108 -107 -37 0
-108 107 0
-108 37 0
109 -738 -106 0
-109 738 0
-109 106 0
110 -739 -1 0
-110 739 0
-110 1 0
111 -110 -740 0
-111 110 0
-111 740 0
112 -741 -109 0
-112 741 0
-112 109 0
113 -38 -717 0
-113 38 0
-113 717 0
114 -113 -742 0
-114 113 0
-114 742 0
115 -743 -112 0
-115 743 0
-115 112 0
116 -21 -13 0
-116 21 0
-116 13 0
117 -116 -39 0
-117 116 0
-117 39 0
118 -744 -115 0
-118 744 0
-118 115 0
119 -40 -745 0
-119 40 0
-119 745 0
120 -119 -32 0
-120 119 0
-120 32 0
121 -746 -118 0
-121 746 0
-121 118 0
122 -747 -706 0
-122 747 0
-122 706 0
123 -122 -748 0
-123 122 0
-123 748 0
124 -749 -121 0
-124 749 0
-124 121 0
125 -15 -14 0
-125 15 0
-125 14 0
126 -125 -727 0
-126 125 0
-126 727 0
127 -750 -124 0
-127 750 0
-127 124 0
128 -43 -751 0
-128 43 0
-128 751 0
129 -128 -752 0
-129 128 0
-129 752 0
130 -753 -127 0
-130 753 0
-130 127 0
131 -44 -10 0
-131 44 0
-131 10 0
132 -131 -735 0
-132 131 0
-132 735 0
133 -754 -130 0
-133 754 0
-133 130 0
134 -23 -21 0
-134 23 0
-134 21 0
135 -134 -707 0
-135 134 0
-135 707 0
136 -755 -133 0
-136 755 0
-136 133 0
137 -756 -39 0
-137 756 0
-137 39 0
138 -137 -46 0
-138 137 0
-138 46 0
139 -757 -136 0
-139 757 0
-139 136 0
140 -720 -1 0
-140 720 0
-140 1 0
141 -140 -26 0
-141 140 0
-141 26 0
142 -758 -139 0
-142 758 0
-142 139 0
143 -44 -713 0
-143 44 0
-143 713 0
144 -143 -735 0
-144 143 0
-144 735 0
145 -759 -142 0
-145 759 0
-145 142 0
146 -748 -699 0
-146 748 0
-146 699 0
147 -146 -731 0
-147 146 0
-147 731 0
148 -760 -145 0
-148 760 0
-148 145 0
149 -45 -697 0
-149 45 0
-149 697 0
150 -149 -761 0
-150 149 0
-150 761 0
151 -762 -148 0
-151 762 0
-151 148 0
152 -13 -763 0
-152 13 0
-152 763 0
153 -152 -731 0
-153 152 0
-153 731 0
154 -764 -151 0
-154 764 0
-154 151 0
155 -765 -727 0
-155 765 0
-155 727 0
156 -155 -731 0
-156 155 0
-156 731 0
157 -766 -154 0
-157 766 0
-157 154 0
158 -767 -20 0
-158 767 0
-158 20 0
159 -158 -720 0
-159 158 0
-159 720 0
160 -768 -157 0
-160 768 0
-160 157 0
161 -40 -1 0
-161 40 0
-161 1 0
162 -161 -720 0
-162 161 0
-162 720 0
163 -769 -160 0
-163 769 0
-163 160 0
164 -47 -765 0
-164 47 0
-164 765 0
165 -164 -33 0
-165 164 0
-165 33 0
166 -770 -163 0
-166 770 0
-166 163 0
167 -771 -772 0
-167 771 0
-167 772 0
168 -167 -46 0
-168 167 0
-168 46 0
169 -773 -166 0
-169 773 0
-169 166 0
170 -39 -30 0
-170 39 0
-170 30 0
171 -170 -752 0
-171 170 0
-171 752 0
172 -774 -169 0
-172 774 0
-172 169 0
173 -751 -698 0
-173 751 0
-173 698 0
174 -173 -711 0
-174 173 0
-174 711 0
175 -775 -172 0
-175 775 0
-175 172 0
176 -776 -720 0
-176 776 0
-176 720 0
177 -176 -48 0
-177 176 0
-177 48 0
178 -777 -175 0
-178 777 0
-178 175 0
179 -772 -702 0
-179 772 0
-179 702 0
180 -179 -4 0
-180 179 0
-180 4 0
181 -778 -178 0
-181 778 0
-181 178 0
182 -13 -11 0
-182 13 0
-182 11 0
183 -182 -724 0
-183 182 0
-183 724 0
184 -779 -181 0
-184 779 0
-184 181 0
185 -34 -752 0
-185 34 0
-185 752 0
186 -185 -37 0
-186 185 0
-186 37 0
187 -780 -184 0
-187 780 0
-187 184 0
188 -15 -9 0
-188 15 0
-188 9 0
189 -188 -49 0
-189 188 0
-189 49 0
190 -781 -187 0
-190 781 0
-190 187 0
191 -772 -11 0
-191 772 0
-191 11 0
192 -191 -747 0
-192 191 0
-192 747 0
193 -782 -190 0
-193 782 0
-193 190 0
194 -13 -2 0
-194 13 0
-194 2 0
195 -194 -28 0
-195 194 0
-195 28 0
196 -783 -193 0
-196 783 0
-196 193 0
197 -771 -43 0
-197 771 0
-197 43 0
198 -197 -48 0
-198 197 0
-198 48 0
199 -784 -196 0
-199 784 0
-199 196 0
200 -38 -698 0
-200 38 0
-200 698 0
201 -200 -785 0
-201 200 0
-201 785 0
202 -786 -199 0
-202 786 0
-202 199 0
203 -751 -1 0
-203 751 0
-203 1 0
204 -203 -45 0
-204 203 0
-204 45 0
205 -787 -202 0
-205 787 0
-205 202 0
206 -788 -1 0
-206 788 0
-206 1 0
207 -206 -727 0
-207 206 0
-207 727 0
208 -789 -205 0
-208 789 0
-208 205 0
209 -27 -723 0
-209 27 0
-209 723 0
210 -209 -46 0
-210 209 0
-210 46 0
211 -790 -208 0
-211 790 0
-211 208 0
212 -748 -751 0
-212 748 0
-212 751 0
213 -212 -12 0
-213 212 0
-213 12 0
214 -791 -211 0
-214 791 0
-214 211 0
215 -50 -742 0
-215 50 0
-215 742 0
216 -215 -785 0
-216 215 0
-216 785 0
217 -792 -214 0
-217 792 0
-217 214 0
218 -29 -3 0
-218 29 0
-218 3 0
219 -218 -793 0
-219 218 0
-219 793 0
220 -794 -217 0
-220 794 0
-220 217 0
221 -795 -28 0
-221 795 0
-221 28 0
222 -221 -36 0
-222 221 0
-222 36 0
223 -796 -220 0
-223 796 0
-223 220 0
224 -27 -717 0
-224 27 0
-224 717 0
225 -224 -20 0
-225 224 0
-225 20 0
226 -797 -223 0
-226 797 0
-226 223 0
227 -745 -14 0
-227 745 0
-227 14 0
228 -227 -45 0
-228 227 0
-228 45 0
229 -798 -226 0
-229 798 0
-229 226 0
230 -27 -20 0
-230 27 0
-230 20 0
231 -230 -33 0
-231 230 0
-231 33 0
232 -799 -229 0
-232 799 0
-232 229 0
233 -45 -772 0
-233 45 0
-233 772 0
234 -233 -800 0
-234 233 0
-234 800 0
235 -801 -232 0
-235 801 0
-235 232 0
236 -23 -711 0
-236 23 0
-236 711 0
237 -236 -48 0
-237 236 0
-237 48 0
238 -802 -235 0
-238 802 0
-238 235 0
239 -35 -8 0
-239 35 0
-239 8 0
240 -239 -800 0
-240 239 0
-240 800 0
241 -803 -238 0
-241 803 0
-241 238 0
242 -49 -44 0
-242 49 0
-242 44 0
243 -242 -31 0
-243 242 0
-243 31 0
244 -804 -241 0
-244 804 0
-244 241 0
245 -35 -30 0
-245 35 0
-245 30 0
246 -245 -26 0
-246 245 0
-246 26 0
247 -805 -244 0
-247 805 0
-247 244 0
248 -42 -745 0
-248 42 0
-248 745 0
249 -248 -43 0
-249 248 0
-249 43 0
250 -806 -247 0
-250 806 0
-250 247 0
251 -772 -765 0
-251 772 0
-251 765 0
252 -251 -48 0
-252 251 0
-252 48 0
253 -807 -250 0
-253 807 0
-253 250 0
254 -27 -19 0
-254 27 0
-254 19 0
255 -254 -706 0
-255 254 0
-255 706 0
256 -808 -253 0
-256 808 0
-256 253 0
257 -18 -8 0
-257 18 0
-257 8 0
258 -257 -48 0
-258 257 0
-258 48 0
259 -809 -256 0
-259 809 0
-259 256 0
260 -765 -735 0
-260 765 0
-260 735 0
261 -260 -28 0
-261 260 0
-261 28 0
262 -810 -259 0
-262 810 0
-262 259 0
263 -31 -15 0
-263 31 0
-263 15 0
264 -263 -16 0
-264 263 0
-264 16 0
265 -811 -262 0
-265 811 0
-265 262 0
266 -765 -709 0
-266 765 0
-266 709 0
267 -266 -731 0
-267 266 0
-267 731 0
268 -812 -265 0
-268 812 0
-268 265 0
269 -745 -11 0
-269 745 0
-269 11 0
270 -269 -6 0
-270 269 0
-270 6 0
271 -813 -268 0
-271 813 0
-271 268 0
272 -735 -713 0
-272 735 0
-272 713 0
273 -272 -814 0
-273 272 0
-273 814 0
274 -815 -271 0
-274 815 0
-274 271 0
275 -44 -17 0
-275 44 0
-275 17 0
276 -275 -47 0
-276 275 0
-276 47 0
277 -816 -274 0
-277 816 0
-277 274 0
278 -38 -709 0
-278 38 0
-278 709 0
279 -278 -767 0
-279 278 0
-279 767 0
280 -817 -277 0
-280 817 0
-280 277 0
281 -19 -15 0
-281 19 0
-281 15 0
282 -281 -818 0
-282 281 0
-282 818 0
283 -819 -280 0
-283 819 0
-283 280 0
284 -31 -27 0
-284 31 0
-284 27 0
285 -284 -711 0
-285 284 0
-285 711 0
286 -820 -283 0
-286 820 0
-286 283 0
287 -49 -13 0
-287 49 0
-287 13 0
288 -287 -818 0
-288 287 0
-288 818 0
289 -821 -286 0
-289 821 0
-289 286 0
290 -44 -38 0
-290 44 0
-290 38 0
291 -290 -43 0
-291 290 0
-291 43 0
292 -822 -289 0
-292 822 0
-292 289 0
293 -717 -6 0
-293 717 0
-293 6 0
294 -293 -736 0
-294 293 0
-294 736 0
295 -823 -292 0
-295 823 0
-295 292 0
296 -824 -30 0
-296 824 0
-296 30 0
297 -296 -761 0
-297 296 0
-297 761 0
298 -825 -295 0
-298 825 0
-298 295 0
299 -11 -714 0
-299 11 0
-299 714 0
300 -299 -34 0
-300 299 0
-300 34 0
301 -826 -298 0
-301 826 0
-301 298 0
302 -776 -751 0
-302 776 0
-302 751 0
303 -302 -731 0
-303 302 0
-303 731 0
304 -827 -301 0
-304 827 0
-304 301 0
305 -39 -718 0
-305 39 0
-305 718 0
306 -305 -3 0
-306 305 0
-306 3 0
307 -828 -304 0
-307 828 0
-307 304 0
308 -46 -730 0
-308 46 0
-308 730 0
309 -308 -752 0
-309 308 0
-309 752 0
310 -829 -307 0
-310 829 0
-310 307 0
311 -43 -830 0
-311 43 0
-311 830 0
312 -311 -12 0
-312 311 0
-312 12 0
313 -831 -310 0
-313 831 0
-313 310 0
314 -832 -731 0
-314 832 0
-314 731 0
315 -314 -37 0
-315 314 0
-315 37 0
316 -833 -313 0
-316 833 0
-316 313 0
317 -800 -707 0
-317 800 0
-317 707 0
318 -317 -26 0
-318 317 0
-318 26 0
319 -834 -316 0
-319 834 0
-319 316 0
320 -293 -30 0
-320 293 0
-320 30 0
321 -835 -319 0
-321 835 0
-321 319 0
322 -49 -38 0
-322 49 0
-322 38 0
323 -322 -41 0
-323 322 0
-323 41 0
324 -836 -321 0
-324 836 0
-324 321 0
325 -43 -35 0
-325 43 0
-325 35 0
326 -325 -818 0
-326 325 0
-326 818 0
327 -837 -324 0
-327 837 0
-327 324 0
328 -745 -736 0
-328 745 0
-328 736 0
329 -328 -795 0
-329 328 0
-329 795 0
330 -838 -327 0
-330 838 0
-330 327 0
331 -723 -9 0
-331 723 0
-331 9 0
332 -331 -41 0
-332 331 0
-332 41 0
333 -839 -330 0
-333 839 0
-333 330 0
334 -21 -709 0
-334 21 0
-334 709 0
335 -334 -720 0
-335 334 0
-335 720 0
336 -840 -333 0
-336 840 0
-336 333 0
337 -24 -736 0
-337 24 0
-337 736 0
338 -337 -26 0
-338 337 0
-338 26 0
339 -841 -336 0
-339 841 0
-339 336 0
340 -776 -38 0
-340 776 0
-340 38 0
341 -340 -30 0
-341 340 0
-341 30 0
342 -842 -339 0
-342 842 0
-342 339 0
343 -742 -703 0
-343 742 0
-343 703 0
344 -343 -727 0
-344 343 0
-344 727 0
345 -843 -342 0
-345 843 0
-345 342 0
346 -22 -7 0
-346 22 0
-346 7 0
347 -346 -42 0
-347 346 0
-347 42 0
348 -844 -345 0
-348 844 0
-348 345 0
349 -45 -10 0
-349 45 0
-349 10 0
350 -349 -707 0
-350 349 0
-350 707 0
351 -845 -348 0
-351 845 0
-351 348 0
352 -767 -720 0
-352 767 0
-352 720 0
353 -352 -37 0
-353 352 0
-353 37 0
354 -846 -351 0
-354 846 0
-354 351 0
355 -36 -742 0
-355 36 0
-355 742 0
356 -355 -724 0
-356 355 0
-356 724 0
357 -847 -354 0
-357 847 0
-357 354 0
358 -788 -2 0
-358 788 0
-358 2 0
359 -358 -800 0
-359 358 0
-359 800 0
360 -848 -357 0
-360 848 0
-360 357 0
361 -800 -776 0
-361 800 0
-361 776 0
362 -361 -36 0
-362 361 0
-362 36 0
363 -849 -360 0
-363 849 0
-363 360 0
364 -17 -702 0
-364 17 0
-364 702 0
365 -364 -740 0
-365 364 0
-365 740 0
366 -850 -363 0
-366 850 0
-366 363 0
367 -21 -703 0
-367 21 0
-367 703 0
368 -367 -748 0
-368 367 0
-368 748 0
369 -851 -366 0
-369 851 0
-369 366 0
370 -24 -11 0
-370 24 0
-370 11 0
371 -370 -767 0
-371 370 0
-371 767 0
372 -852 -369 0
-372 852 0
-372 369 0
373 -740 -17 0
-373 740 0
-373 17 0
374 -373 -761 0
-374 373 0
-374 761 0
375 -853 -372 0
-375 853 0
-375 372 0
376 -776 -739 0
-376 776 0
-376 739 0
377 -376 -42 0
-377 376 0
-377 42 0
378 -854 -375 0
-378 854 0
-378 375 0
379 -9 -714 0
-379 9 0
-379 714 0
380 -379 -47 0
-380 379 0
-380 47 0
381 -855 -378 0
-381 855 0
-381 378 0
382 -45 -739 0
-382 45 0
-382 739 0
383 -382 -824 0
-383 382 0
-383 824 0
384 -856 -381 0
-384 856 0
-384 381 0
385 -730 -14 0
-385 730 0
-385 14 0
386 -385 -740 0
-386 385 0
-386 740 0
387 -857 -384 0
-387 857 0
-387 384 0
388 -45 -11 0
-388 45 0
-388 11 0
389 -388 -42 0
-389 388 0
-389 42 0
390 -858 -387 0
-390 858 0
-390 387 0
391 -723 -5 0
-391 723 0
-391 5 0
392 -391 -748 0
-392 391 0
-392 748 0
393 -859 -390 0
-393 859 0
-393 390 0
394 -814 -13 0
-394 814 0
-394 13 0
395 -394 -35 0
-395 394 0
-395 35 0
396 -860 -393 0
-396 860 0
-396 393 0
397 -32 -713 0
-397 32 0
-397 713 0
398 -397 -724 0
-398 397 0
-398 724 0
399 -861 -396 0
-399 861 0
-399 396 0
400 -21 -706 0
-400 21 0
-400 706 0
401 -400 -832 0
-401 400 0
-401 832 0
402 -862 -399 0
-402 862 0
-402 399 0
403 -800 -30 0
-403 800 0
-403 30 0
404 -403 -707 0
-404 403 0
-404 707 0
405 -863 -402 0
-405 863 0
-405 402 0
406 -39 -717 0
-406 39 0
-406 717 0
407 -406 -752 0
-407 406 0
-407 752 0
408 -864 -405 0
-408 864 0
-408 405 0
409 -751 -705 0
-409 751 0
-409 705 0
410 -409 -35 0
-410 409 0
-410 35 0
411 -865 -408 0
-411 865 0
-411 408 0
412 -311 -800 0
-412 311 0
-412 800 0
413 -866 -411 0
-413 866 0
-413 411 0
414 -40 -7 0
-414 40 0
-414 7 0
415 -414 -832 0
-415 414 0
-415 832 0
416 -867 -413 0
-416 867 0
-416 413 0
417 -756 -19 0
-417 756 0
-417 19 0
418 -417 -46 0
-418 417 0
-418 46 0
419 -868 -416 0
-419 868 0
-419 416 0
420 -788 -703 0
-420 788 0
-420 703 0
421 -420 -720 0
-421 420 0
-421 720 0
422 -869 -419 0
-422 869 0
-422 419 0
423 -830 -22 0
-423 830 0
-423 22 0
424 -423 -25 0
-424 423 0
-424 25 0
425 -870 -422 0
-425 870 0
-425 422 0
426 -47 -31 0
-426 47 0
-426 31 0
427 -426 -36 0
-427 426 0
-427 36 0
428 -871 -425 0
-428 871 0
-428 425 0
429 -795 -756 0
-429 795 0
-429 756 0
430 -429 -785 0
-430 429 0
-430 785 0
431 -872 -428 0
-431 872 0
-431 428 0
432 -36 -21 0
-432 36 0
-432 21 0
433 -432 -37 0
-433 432 0
-433 37 0
434 -873 -431 0
-434 873 0
-434 431 0
435 -42 -772 0
-435 42 0
-435 772 0
436 -435 -752 0
-436 435 0
-436 752 0
437 -874 -434 0
-437 874 0
-437 434 0
438 -706 -875 0
-438 706 0
-438 875 0
439 -438 -748 0
-439 438 0
-439 748 0
440 -876 -437 0
-440 876 0
-440 437 0
441 -751 -7 0
-441 751 0
-441 7 0
442 -441 -767 0
-442 441 0
-442 767 0
443 -877 -440 0
-443 877 0
-443 440 0
444 -723 -706 0
-444 723 0
-444 706 0
445 -444 -818 0
-445 444 0
-445 818 0
446 -878 -443 0
-446 878 0
-446 443 0
447 -38 -713 0
-447 38 0
-447 713 0
448 -447 -697 0
-448 447 0
-448 697 0
449 -879 -446 0
-449 879 0
-449 446 0
450 -31 -699 0
-450 31 0
-450 699 0
451 -450 -34 0
-451 450 0
-451 34 0
452 -880 -449 0
-452 880 0
-452 449 0
453 -702 -1 0
-453 702 0
-453 1 0
454 -453 -832 0
-454 453 0
-454 832 0
455 -881 -452 0
-455 881 0
-455 452 0
456 -46 -703 0
-456 46 0
-456 703 0
457 -456 -832 0
-457 456 0
-457 832 0
458 -882 -455 0
-458 882 0
-458 455 0
459 -20 -713 0
-459 20 0
-459 713 0
460 -459 -41 0
-460 459 0
-460 41 0
461 -883 -458 0
-461 883 0
-461 458 0
462 -814 -795 0
-462 814 0
-462 795 0
463 -462 -761 0
-463 462 0
-463 761 0
464 -884 -461 0
-464 884 0
-464 461 0
465 -49 -17 0
-465 49 0
-465 17 0
466 -465 -28 0
-466 465 0
-466 28 0
467 -885 -464 0
-467 885 0
-467 464 0
468 -20 -711 0
-468 20 0
-468 711 0
469 -468 -785 0
-469 468 0
-469 785 0
470 -886 -467 0
-470 886 0
-470 467 0
471 -739 -703 0
-471 739 0
-471 703 0
472 -471 -740 0
-472 471 0
-472 740 0
473 -887 -470 0
-473 887 0
-473 470 0
474 -795 -7 0
-474 795 0
-474 7 0
475 -474 -785 0
-475 474 0
-475 785 0
476 -888 -473 0
-476 888 0
-476 473 0
477 -462 -35 0
-477 462 0
-477 35 0
478 -889 -476 0
-478 889 0
-478 476 0
479 -24 -17 0
-479 24 0
-479 17 0
480 -479 -724 0
-480 479 0
-480 724 0
481 -890 -478 0
-481 890 0
-481 478 0
482 -23 -19 0
-482 23 0
-482 19 0
483 -482 -33 0
-483 482 0
-483 33 0
484 -891 -481 0
-484 891 0
-484 481 0
485 -795 -771 0
-485 795 0
-485 771 0
486 -485 -761 0
-486 485 0
-486 761 0
487 -892 -484 0
-487 892 0
-487 484 0
488 -41 -10 0
-488 41 0
-488 10 0
489 -488 -707 0
-489 488 0
-489 707 0
490 -893 -487 0
-490 893 0
-490 487 0
491 -14 -699 0
-491 14 0
-491 699 0
492 -491 -43 0
-492 491 0
-492 43 0
493 -894 -490 0
-493 894 0
-493 490 0
494 -18 -699 0
-494 18 0
-494 699 0
495 -494 -35 0
-495 494 0
-495 35 0
496 -895 -493 0
-496 895 0
-496 493 0
497 -767 -875 0
-497 767 0
-497 875 0
498 -497 -16 0
-498 497 0
-498 16 0
499 -896 -496 0
-499 896 0
-499 496 0
500 -19 -4 0
-500 19 0
-500 4 0
501 -500 -736 0
-501 500 0
-501 736 0
502 -897 -499 0
-502 897 0
-502 499 0
503 -209 -698 0
-503 209 0
-503 698 0
504 -898 -502 0
-504 898 0
-504 502 0
505 -739 -17 0
-505 739 0
-505 17 0
506 -505 -49 0
-506 505 0
-506 49 0
507 -899 -504 0
-507 899 0
-507 504 0
508 -767 -748 0
-508 767 0
-508 748 0
509 -508 -736 0
-509 508 0
-509 736 0
510 -900 -507 0
-510 900 0
-510 507 0
511 -44 -15 0
-511 44 0
-511 15 0
512 -511 -42 0
-512 511 0
-512 42 0
513 -901 -510 0
-513 901 0
-513 510 0
514 -44 -727 0
-514 44 0
-514 727 0
515 -514 -832 0
-515 514 0
-515 832 0
516 -902 -513 0
-516 902 0
-516 513 0
517 -771 -11 0
-517 771 0
-517 11 0
518 -517 -747 0
-518 517 0
-518 747 0
519 -903 -516 0
-519 903 0
-519 516 0
520 -713 -3 0
-520 713 0
-520 3 0
521 -520 -800 0
-521 520 0
-521 800 0
522 -904 -519 0
-522 904 0
-522 519 0
523 -40 -19 0
-523 40 0
-523 19 0
524 -523 -785 0
-524 523 0
-524 785 0
525 -905 -522 0
-525 905 0
-525 522 0
526 -745 -718 0
-526 745 0
-526 718 0
527 -526 -31 0
-527 526 0
-527 31 0
528 -906 -525 0
-528 906 0
-528 525 0
529 -32 -706 0
-529 32 0
-529 706 0
530 -529 -824 0
-530 529 0
-530 824 0
531 -907 -528 0
-531 907 0
-531 528 0
532 -788 -718 0
-532 788 0
-532 718 0
533 -532 -752 0
-533 532 0
-533 752 0
534 -908 -531 0
-534 908 0
-534 531 0
535 -771 -32 0
-535 771 0
-535 32 0
536 -535 -47 0
-536 535 0
-536 47 0
537 -909 -534 0
-537 909 0
-537 534 0
538 -44 -735 0
-538 44 0
-538 735 0
539 -538 -814 0
-539 538 0
-539 814 0
540 -910 -537 0
-540 910 0
-540 537 0
541 -717 -4 0
-541 717 0
-541 4 0
542 -541 -45 0
-542 541 0
-542 45 0
543 -911 -540 0
-543 911 0
-543 540 0
544 -795 -697 0
-544 795 0
-544 697 0
545 -544 -48 0
-545 544 0
-545 48 0
546 -912 -543 0
-546 912 0
-546 543 0
547 -20 -7 0
-547 20 0
-547 7 0
548 -547 -2 0
-548 547 0
-548 2 0
549 -913 -546 0
-549 913 0
-549 546 0
550 -756 -17 0
-550 756 0
-550 17 0
551 -550 -18 0
-551 550 0
-551 18 0
552 -914 -549 0
-552 914 0
-552 549 0
553 -772 -10 0
-553 772 0
-553 10 0
554 -553 -699 0
-554 553 0
-554 699 0
555 -915 -552 0
-555 915 0
-555 552 0
556 -717 -713 0
-556 717 0
-556 713 0
557 -556 -793 0
-557 556 0
-557 793 0
558 -916 -555 0
-558 916 0
-558 555 0
559 -40 -13 0
-559 40 0
-559 13 0
560 -559 -720 0
-560 559 0
-560 720 0
561 -917 -558 0
-561 917 0
-561 558 0
562 -38 -5 0
-562 38 0
-562 5 0
563 -562 -16 0
-563 562 0
-563 16 0
564 -918 -561 0
-564 918 0
-564 561 0
565 -736 -727 0
-565 736 0
-565 727 0
566 -565 -35 0
-566 565 0
-566 35 0
567 -919 -564 0
-567 919 0
-567 564 0
568 -257 -814 0
-568 257 0
-568 814 0
569 -920 -567 0
-569 920 0
-569 567 0
570 -92 -814 0
-570 92 0
-570 814 0
571 -921 -569 0
-571 921 0
-571 569 0
572 -756 -832 0
-572 756 0
-572 832 0
573 -572 -818 0
-573 572 0
-573 818 0
574 -922 -571 0
-574 922 0
-574 571 0
575 -772 -24 0
-575 772 0
-575 24 0
576 -575 -28 0
-576 575 0
-576 28 0
577 -923 -574 0
-577 923 0
-577 574 0
578 -38 -22 0
-578 38 0
-578 22 0
579 -578 -747 0
-579 578 0
-579 747 0
580 -924 -577 0
-580 924 0
-580 577 0
581 -17 -1 0
-581 17 0
-581 1 0
582 -581 -706 0
-582 581 0
-582 706 0
583 -925 -580 0
-583 925 0
-583 580 0
584 -38 -697 0
-584 38 0
-584 697 0
585 -584 -6 0
-585 584 0
-585 6 0
586 -926 -583 0
-586 926 0
-586 583 0
587 -19 -6 0
-587 19 0
-587 6 0
588 -587 -707 0
-588 587 0
-588 707 0
589 -927 -586 0
-589 927 0
-589 586 0
590 -793 -709 0
-590 793 0
-590 709 0
591 -590 -35 0
-591 590 0
-591 35 0
592 -928 -589 0
-592 928 0
-592 589 0
593 -832 -9 0
-593 832 0
-593 9 0
594 -593 -36 0
-594 593 0
-594 36 0
595 -929 -592 0
-595 929 0
-595 592 0
596 -795 -832 0
-596 795 0
-596 832 0
597 -596 -37 0
-597 596 0
-597 37 0
598 -930 -595 0
-598 930 0
-598 595 0
599 -104 -824 0
-599 104 0
-599 824 0
600 -931 -598 0
-600 931 0
-600 598 0
601 -15 -11 0
-601 15 0
-601 11 0
602 -601 -43 0
-602 601 0
-602 43 0
603 -932 -600 0
-603 932 0
-603 600 0
604 -735 -6 0
-604 735 0
-604 6 0
605 -604 -748 0
-605 604 0
-605 748 0
606 -933 -603 0
-606 933 0
-606 603 0
607 -756 -13 0
-607 756 0
-607 13 0
608 -607 -34 0
-608 607 0
-608 34 0
609 -934 -606 0
-609 934 0
-609 606 0
610 -776 -698 0
-610 776 0
-610 698 0
611 -610 -50 0
-611 610 0
-611 50 0
612 -935 -609 0
-612 935 0
-612 609 0
613 -699 -3 0
-613 699 0
-613 3 0
614 -613 -765 0
-614 613 0
-614 765 0
615 -936 -612 0
-615 936 0
-615 612 0
616 -19 -10 0
-616 19 0
-616 10 0
617 -616 -800 0
-617 616 0
-617 800 0
618 -937 -615 0
-618 937 0
-618 615 0
619 -7 -3 0
-619 7 0
-619 3 0
620 -619 -776 0
-620 619 0
-620 776 0
621 -938 -618 0
-621 938 0
-621 618 0
622 -742 -13 0
-622 742 0
-622 13 0
623 -622 -10 0
-623 622 0
-623 10 0
624 -939 -621 0
-624 939 0
-624 621 0
625 -29 -13 0
-625 29 0
-625 13 0
626 -625 -2 0
-626 625 0
-626 2 0
627 -940 -624 0
-627 940 0
-627 624 0
628 -735 -1 0
-628 735 0
-628 1 0
629 -628 -730 0
-629 628 0
-629 730 0
630 -941 -627 0
-630 941 0
-630 627 0
631 -46 -748 0
-631 46 0
-631 748 0
632 -631 -23 0
-632 631 0
-632 23 0
633 -942 -630 0
-633 942 0
-633 630 0
634 -771 -943 0
-634 771 0
-634 943 0
635 -634 -28 0
-635 634 0
-635 28 0
636 -944 -633 0
-636 944 0
-636 633 0
637 -830 -717 0
-637 830 0
-637 717 0
638 -637 -752 0
-638 637 0
-638 752 0
639 -945 -636 0
-639 945 0
-639 636 0
640 -735 -699 0
-640 735 0
-640 699 0
641 -640 -698 0
-641 640 0
-641 698 0
642 -946 -639 0
-642 946 0
-642 639 0
643 -748 -720 0
-643 748 0
-643 720 0
644 -643 -740 0
-644 643 0
-644 740 0
645 -947 -642 0
-645 947 0
-645 642 0
646 -711 -713 0
-646 711 0
-646 713 0
647 -646 -800 0
-647 646 0
-647 800 0
648 -948 -645 0
-648 948 0
-648 645 0
649 -703 -7 0
-649 703 0
-649 7 0
650 -649 -22 0
-650 649 0
-650 22 0
651 -949 -648 0
-651 949 0
-651 648 0
652 -41 -9 0
-652 41 0
-652 9 0
653 -652 -707 0
-653 652 0
-653 707 0
654 -950 -651 0
-654 950 0
-654 651 0
655 -27 -702 0
-655 27 0
-655 702 0
656 -655 -3 0
-656 655 0
-656 3 0
657 -951 -654 0
-657 951 0
-657 654 0
658 -795 -11 0
-658 795 0
-658 11 0
659 -658 -752 0
-659 658 0
-659 752 0
660 -952 -657 0
-660 952 0
-660 657 0
661 -730 -697 0
-661 730 0
-661 697 0
662 -661 -711 0
-662 661 0
-662 711 0
663 -953 -660 0
-663 953 0
-663 660 0
664 -11 -727 0
-664 11 0
-664 727 0
665 -664 -756 0
-665 664 0
-665 756 0
666 -954 -663 0
-666 954 0
-666 663 0
667 -748 -742 0
-667 748 0
-667 742 0
668 -667 -18 0
-668 667 0
-668 18 0
669 -955 -666 0
-669 955 0
-669 666 0
670 -31 -3 0
-670 31 0
-670 3 0
671 -670 -23 0
-671 670 0
-671 23 0
672 -956 -669 0
-672 956 0
-672 669 0
673 -11 -2 0
-673 11 0
-673 2 0
674 -673 -23 0
-674 673 0
-674 23 0
675 -957 -672 0
-675 957 0
-675 672 0
676 -38 -830 0
-676 38 0
-676 830 0
677 -676 -748 0
-677 676 0
-677 748 0
678 -958 -675 0
-678 958 0
-678 675 0
679 -717 -714 0
-679 717 0
-679 714 0
680 -679 -711 0
-680 679 0
-680 711 0
681 -959 -678 0
-681 959 0
-681 678 0
682 -19 -8 0
-682 19 0
-682 8 0
683 -682 -46 0
-683 682 0
-683 46 0
684 -960 -681 0
-684 960 0
-684 681 0
685 -24 -875 0
-685 24 0
-685 875 0
686 -685 -731 0
-686 685 0
-686 731 0
687 -961 -684 0
-687 961 0
-687 684 0
688 -720 -3 0
-688 720 0
-688 3 0
689 -688 -36 0
-689 688 0
-689 36 0
690 -962 -687 0
-690 962 0
-690 687 0
691 -736 -763 0
-691 736 0
-691 763 0
692 -691 -23 0
-692 691 0
-692 23 0
693 -963 -690 0
-693 963 0
-693 690 0
694 -41 -763 0
-694 41 0
-694 763 0
695 -694 -832 0
-695 694 0
-695 832 0
696 -964 -693 0
-696 964 0
-696 693 0
-697 -1 0
697 1 0
-698 -3 0
698 3 0
-699 -4 0
699 4 0
-700 -54 0
700 54 0
-701 -52 0
701 52 0
-702 -7 0
702 7 0
-703 -9 0
703 9 0
-704 -57 0
704 57 0
-705 -11 0
705 11 0
-706 -10 0
706 10 0
-707 -12 0
707 12 0
-708 -60 0
708 60 0
-709 -13 0
709 13 0
-710 -63 0
710 63 0
-711 -16 0
711 16 0
-712 -66 0
712 66 0
-713 -14 0
713 14 0
-714 -6 0
714 6 0
-715 -69 0
715 69 0
-716 -72 0
716 72 0
-717 -15 0
717 15 0
-718 -20 0
718 20 0
-719 -75 0
719 75 0
-720 -23 0
720 23 0
-721 -78 0
721 78 0
-722 -81 0
722 81 0
-723 -17 0
723 17 0
-724 -26 0
724 26 0
-725 -84 0
725 84 0
-726 -87 0
726 87 0
-727 -5 0
727 5 0
-728 -90 0
728 90 0
-729 -93 0
729 93 0
-730 -31 0
730 31 0
-731 -32 0
731 32 0
-732 -96 0
732 96 0
-733 -99 0
733 99 0
-734 -102 0
734 102 0
-735 -22 0
735 22 0
-736 -18 0
736 18 0
-737 -105 0
737 105 0
-738 -108 0
738 108 0
-739 -19 0
739 19 0
-740 -35 0
740 35 0
-741 -111 0
741 111 0
-742 -21 0
742 21 0
-743 -114 0
743 114 0
-744 -117 0
744 117 0
-745 -39 0
745 39 0
-746 -120 0
746 120 0
-747 -41 0
747 41 0
-748 -42 0
748 42 0
-749 -123 0
749 123 0
-750 -126 0
750 126 0
-751 -29 0
751 29 0
-752 -28 0
752 28 0
-753 -129 0
753 129 0
-754 -132 0
754 132 0
-755 -135 0
755 135 0
-756 -45 0
756 45 0
-757 -138 0
757 138 0
-758 -141 0
758 141 0
-759 -144 0
759 144 0
-760 -147 0
760 147 0
-761 -37 0
761 37 0
-762 -150 0
762 150 0
-763 -8 0
763 8 0
-764 -153 0
764 153 0
-765 -25 0
765 25 0
-766 -156 0
766 156 0
-767 -46 0
767 46 0
-768 -159 0
768 159 0
-769 -162 0
769 162 0
-770 -165 0
770 165 0
-771 -44 0
771 44 0
-772 -38 0
772 38 0
-773 -168 0
773 168 0
-774 -171 0
774 171 0
-775 -174 0
775 174 0
-776 -40 0
776 40 0
-777 -177 0
777 177 0
-778 -180 0
778 180 0
-779 -183 0
779 183 0
-780 -186 0
780 186 0
-781 -189 0
781 189 0
-782 -192 0
782 192 0
-783 -195 0
783 195 0
-784 -198 0
784 198 0
-785 -30 0
785 30 0
-786 -201 0
786 201 0
-787 -204 0
787 204 0
-788 -49 0
788 49 0
-789 -207 0
789 207 0
-790 -210 0
790 210 0
-791 -213 0
791 213 0
-792 -216 0
792 216 0
-793 -34 0
793 34 0
-794 -219 0
794 219 0
-795 -47 0
795 47 0
-796 -222 0
796 222 0
-797 -225 0
797 225 0
-798 -228 0
798 228 0
-799 -231 0
799 231 0
-800 -48 0
800 48 0
-801 -234 0
801 234 0
-802 -237 0
802 237 0
-803 -240 0
803 240 0
-804 -243 0
804 243 0
-805 -246 0
805 246 0
-806 -249 0
806 249 0
-807 -252 0
807 252 0
-808 -255 0
808 255 0
-809 -258 0
809 258 0
-810 -261 0
810 261 0
-811 -264 0
811 264 0
-812 -267 0
812 267 0
-813 -270 0
813 270 0
-814 -50 0
814 50 0
-815 -273 0
815 273 0
-816 -276 0
816 276 0
-817 -279 0
817 279 0
-818 -36 0
818 36 0
-819 -282 0
819 282 0
-820 -285 0
820 285 0
-821 -288 0
821 288 0
-822 -291 0
822 291 0
-823 -294 0
823 294 0
-824 -43 0
824 43 0
-825 -297 0
825 297 0
-826 -300 0
826 300 0
-827 -303 0
827 303 0
-828 -306 0
828 306 0
-829 -309 0
829 309 0
-830 -24 0
830 24 0
-831 -312 0
831 312 0
-832 -33 0
832 33 0
-833 -315 0
833 315 0
-834 -318 0
834 318 0
-835 -320 0
835 320 0
-836 -323 0
836 323 0
-837 -326 0
837 326 0
-838 -329 0
838 329 0
-839 -332 0
839 332 0
-840 -335 0
840 335 0
-841 -338 0
841 338 0
-842 -341 0
842 341 0
-843 -344 0
843 344 0
-844 -347 0
844 347 0
-845 -350 0
845 350 0
-846 -353 0
846 353 0
-847 -356 0
847 356 0
-848 -359 0
848 359 0
-849 -362 0
849 362 0
-850 -365 0
850 365 0
-851 -368 0
851 368 0
-852 -371 0
852 371 0
-853 -374 0
853 374 0
-854 -377 0
854 377 0
-855 -380 0
855 380 0
-856 -383 0
856 383 0
-857 -386 0
857 386 0
-858 -389 0
858 389 0
-859 -392 0
859 392 0
-860 -395 0
860 395 0
-861 -398 0
861 398 0
-862 -401 0
862 401 0
-863 -404 0
863 404 0
-864 -407 0
864 407 0
-865 -410 0
865 410 0
-866 -412 0
866 412 0
-867 -415 0
867 415 0
-868 -418 0
868 418 0
-869 -421 0
869 421 0
-870 -424 0
870 424 0
-871 -427 0
871 427 0
-872 -430 0
872 430 0
-873 -433 0
873 433 0
-874 -436 0
874 436 0
-875 -2 0
875 2 0
-876 -439 0
876 439 0
-877 -442 0
877 442 0
-878 -445 0
878 445 0
-879 -448 0
879 448 0
-880 -451 0
880 451 0
-881 -454 0
881 454 0
-882 -457 0
882 457 0
-883 -460 0
883 460 0
-884 -463 0
884 463 0
-885 -466 0
885 466 0
-886 -469 0
886 469 0
-887 -472 0
887 472 0
-888 -475 0
888 475 0
-889 -477 0
889 477 0
-890 -480 0
890 480 0
-891 -483 0
891 483 0
-892 -486 0
892 486 0
-893 -489 0
893 489 0
-894 -492 0
894 492 0
-895 -495 0
895 495 0
-896 -498 0
896 498 0
-897 -501 0
897 501 0
-898 -503 0
898 503 0
-899 -506 0
899 506 0
-900 -509 0
900 509 0
-901 -512 0
901 512 0
-902 -515 0
902 515 0
-903 -518 0
903 518 0
-904 -521 0
904 521 0
-905 -524 0
905 524 0
-906 -527 0
906 527 0
-907 -530 0
907 530 0
-908 -533 0
908 533 0
-909 -536 0
909 536 0
-910 -539 0
910 539 0
-911 -542 0
911 542 0
-912 -545 0
912 545 0
-913 -548 0
913 548 0
-914 -551 0
914 551 0
-915 -554 0
915 554 0
-916 -557 0
916 557 0
-917 -560 0
917 560 0
-918 -563 0
918 563 0
-919 -566 0
919 566 0
-920 -568 0
920 568 0
-921 -570 0
921 570 0
-922 -573 0
922 573 0
-923 -576 0
923 576 0
-924 -579 0
924 579 0
-925 -582 0
925 582 0
-926 -585 0
926 585 0
-927 -588 0
927 588 0
-928 -591 0
928 591 0
-929 -594 0
929 594 0
-930 -597 0
930 597 0
-931 -599 0
931 599 0
-932 -602 0
932 602 0
-933 -605 0
933 605 0
-934 -608 0
934 608 0
-935 -611 0
935 611 0
-936 -614 0
936 614 0
-937 -617 0
937 617 0
-938 -620 0
938 620 0
-939 -623 0
939 623 0
-940 -626 0
940 626 0
-941 -629 0
941 629 0
-942 -632 0
942 632 0
-943 -27 0
943 27 0
-944 -635 0
944 635 0
-945 -638 0
945 638 0
-946 -641 0
946 641 0
-947 -644 0
947 644 0
-948 -647 0
948 647 0
-949 -650 0
949 650 0
-950 -653 0
950 653 0
-951 -656 0
951 656 0
-952 -659 0
952 659 0
-953 -662 0
953 662 0
-954 -665 0
954 665 0
-955 -668 0
955 668 0
-956 -671 0
956 671 0
-957 -674 0
957 674 0
-958 -677 0
958 677 0
-959 -680 0
959 680 0
-960 -683 0
960 683 0
-961 -686 0
961 686 0
-962 -689 0
962 689 0
-963 -692 0
963 692 0
-964 -695 0
964 695 0
696 0
